(declare-fun b2460 () (_ FloatingPoint 11 53))
(declare-fun b2525 () (_ FloatingPoint 11 53))
(declare-fun b2122 () (_ FloatingPoint 11 53))
(declare-fun b2617 () (_ FloatingPoint 11 53))
(declare-fun b2606 () (_ FloatingPoint 11 53))
(declare-fun b2653 () (_ FloatingPoint 11 53))
(declare-fun b2328 () (_ FloatingPoint 11 53))
(declare-fun b2247 () (_ FloatingPoint 11 53))
(declare-fun b2152 () (_ FloatingPoint 11 53))
(declare-fun b2050 () (_ FloatingPoint 11 53))
(declare-fun b385 () (_ FloatingPoint 11 53))
(declare-fun b2217 () (_ FloatingPoint 11 53))
(declare-fun b2400 () (_ FloatingPoint 11 53))
(declare-fun b2375 () (_ FloatingPoint 11 53))
(declare-fun b388 () (_ FloatingPoint 11 53))
(declare-fun b2586 () (_ FloatingPoint 11 53))
(declare-fun b2520 () (_ FloatingPoint 11 53))
(declare-fun b958 () (_ FloatingPoint 11 53))
(declare-fun b2648 () (_ FloatingPoint 11 53))
(declare-fun b2242 () (_ FloatingPoint 11 53))
(declare-fun b2768 () (_ FloatingPoint 11 53))
(declare-fun b2803 () (_ FloatingPoint 11 53))
(declare-fun b2157 () (_ FloatingPoint 11 53))
(declare-fun b2490 () (_ FloatingPoint 11 53))
(declare-fun b2864 () (_ FloatingPoint 11 53))
(declare-fun b2187 () (_ FloatingPoint 11 53))
(declare-fun b2066 () (_ FloatingPoint 11 53))
(declare-fun b2182 () (_ FloatingPoint 11 53))
(declare-fun b2272 () (_ FloatingPoint 11 53))
(declare-fun b2097 () (_ FloatingPoint 11 53))
(declare-fun b2430 () (_ FloatingPoint 11 53))
(declare-fun b2061 () (_ FloatingPoint 11 53))
(declare-fun b2308 () (_ FloatingPoint 11 53))
(declare-fun b2708 () (_ FloatingPoint 11 53))
(declare-fun b2092 () (_ FloatingPoint 11 53))
(declare-fun b2435 () (_ FloatingPoint 11 53))
(declare-fun b2713 () (_ FloatingPoint 11 53))
(declare-fun b2874 () (_ FloatingPoint 11 53))
(declare-fun b2405 () (_ FloatingPoint 11 53))
(declare-fun b354 () (_ FloatingPoint 11 53))
(declare-fun b2212 () (_ FloatingPoint 11 53))
(declare-fun b2495 () (_ FloatingPoint 11 53))
(declare-fun b376 () (_ FloatingPoint 11 53))
(declare-fun b2828 () (_ FloatingPoint 11 53))
(declare-fun b2738 () (_ FloatingPoint 11 53))
(declare-fun b2465 () (_ FloatingPoint 11 53))
(declare-fun b2127 () (_ FloatingPoint 11 53))
(declare-fun b2550 () (_ FloatingPoint 11 53))
(declare-fun b2339 () (_ FloatingPoint 11 53))
(declare-fun b2743 () (_ FloatingPoint 11 53))
(declare-fun b2798 () (_ FloatingPoint 11 53))
(declare-fun b2683 () (_ FloatingPoint 11 53))
(declare-fun b2370 () (_ FloatingPoint 11 53))
(declare-fun b2678 () (_ FloatingPoint 11 53))
(declare-fun b2596 () (_ FloatingPoint 11 53))
(declare-fun b2318 () (_ FloatingPoint 11 53))
(declare-fun b2773 () (_ FloatingPoint 11 53))
(declare-fun b342 () (_ FloatingPoint 11 53))
(declare-fun b2344 () (_ FloatingPoint 11 53))
(declare-fun b2622 () (_ FloatingPoint 11 53))
(assert (let ((.def_809 (fp.leq b2092 b388)))
(let ((.def_810 (not .def_809)))
(let ((.def_806 (= b2066 b2050)))
(let ((.def_803 (fp.leq b2122 b388)))
(let ((.def_804 (not .def_803)))
(let ((.def_799 (= b2066 b2097)))
(let ((.def_22 (fp.mul RNE b376 b2097)))
(let ((.def_23 (fp.mul RNE b2097 b2097)))
(let ((.def_24 (fp.neg .def_23)))
(let ((.def_25 (fp.add RNE b958 .def_24)))
(let ((.def_26 (fp.div RNE .def_25 .def_22)))
(let ((.def_27 (fp.add RNE b2097 .def_26)))
(let ((.def_36 (fp.mul RNE .def_27 .def_27)))
(let ((.def_37 (fp.neg .def_36)))
(let ((.def_38 (fp.add RNE b958 .def_37)))
(let ((.def_795 (fp.neg .def_38)))
(let ((.def_796 (= b2122 .def_795)))
(let ((.def_792 (fp.leq b342 .def_38)))
(let ((.def_793 (not .def_792)))
(let ((.def_789 (fp.leq b2152 b388)))
(let ((.def_790 (not .def_789)))
(let ((.def_786 (= b2097 b2127)))
(let ((.def_43 (fp.mul RNE b376 b2127)))
(let ((.def_44 (fp.mul RNE b2127 b2127)))
(let ((.def_45 (fp.neg .def_44)))
(let ((.def_46 (fp.add RNE b958 .def_45)))
(let ((.def_47 (fp.div RNE .def_46 .def_43)))
(let ((.def_48 (fp.add RNE b2127 .def_47)))
(let ((.def_51 (fp.mul RNE .def_48 .def_48)))
(let ((.def_52 (fp.neg .def_51)))
(let ((.def_53 (fp.add RNE b958 .def_52)))
(let ((.def_782 (fp.neg .def_53)))
(let ((.def_783 (= b2152 .def_782)))
(let ((.def_779 (fp.leq b342 .def_53)))
(let ((.def_780 (not .def_779)))
(let ((.def_776 (fp.leq b2182 b388)))
(let ((.def_777 (not .def_776)))
(let ((.def_773 (= b2127 b2157)))
(let ((.def_58 (fp.mul RNE b376 b2157)))
(let ((.def_59 (fp.mul RNE b2157 b2157)))
(let ((.def_60 (fp.neg .def_59)))
(let ((.def_61 (fp.add RNE b958 .def_60)))
(let ((.def_62 (fp.div RNE .def_61 .def_58)))
(let ((.def_63 (fp.add RNE b2157 .def_62)))
(let ((.def_66 (fp.mul RNE .def_63 .def_63)))
(let ((.def_67 (fp.neg .def_66)))
(let ((.def_68 (fp.add RNE b958 .def_67)))
(let ((.def_769 (fp.neg .def_68)))
(let ((.def_770 (= b2182 .def_769)))
(let ((.def_766 (fp.leq b342 .def_68)))
(let ((.def_767 (not .def_766)))
(let ((.def_762 (fp.leq b2212 b388)))
(let ((.def_763 (not .def_762)))
(let ((.def_72 (fp.mul RNE b376 b2050)))
(let ((.def_73 (fp.mul RNE b2050 b2050)))
(let ((.def_74 (fp.neg .def_73)))
(let ((.def_75 (fp.add RNE b958 .def_74)))
(let ((.def_76 (fp.div RNE .def_75 .def_72)))
(let ((.def_77 (fp.add RNE b2050 .def_76)))
(let ((.def_78 (fp.mul RNE .def_77 .def_77)))
(let ((.def_79 (fp.neg .def_78)))
(let ((.def_80 (fp.add RNE b958 .def_79)))
(let ((.def_759 (fp.neg .def_80)))
(let ((.def_760 (= b2061 .def_759)))
(let ((.def_756 (fp.leq b342 .def_80)))
(let ((.def_757 (not .def_756)))
(let ((.def_753 (= b2157 b2187)))
(let ((.def_85 (fp.mul RNE b376 b2187)))
(let ((.def_86 (fp.mul RNE b2187 b2187)))
(let ((.def_87 (fp.neg .def_86)))
(let ((.def_88 (fp.add RNE b958 .def_87)))
(let ((.def_89 (fp.div RNE .def_88 .def_85)))
(let ((.def_90 (fp.add RNE b2187 .def_89)))
(let ((.def_93 (fp.mul RNE .def_90 .def_90)))
(let ((.def_94 (fp.neg .def_93)))
(let ((.def_95 (fp.add RNE b958 .def_94)))
(let ((.def_749 (fp.neg .def_95)))
(let ((.def_750 (= b2212 .def_749)))
(let ((.def_746 (fp.leq b342 .def_95)))
(let ((.def_747 (not .def_746)))
(let ((.def_743 (fp.leq b2242 b388)))
(let ((.def_744 (not .def_743)))
(let ((.def_740 (= b2187 b2217)))
(let ((.def_100 (fp.mul RNE b376 b2217)))
(let ((.def_101 (fp.mul RNE b2217 b2217)))
(let ((.def_102 (fp.neg .def_101)))
(let ((.def_103 (fp.add RNE b958 .def_102)))
(let ((.def_104 (fp.div RNE .def_103 .def_100)))
(let ((.def_105 (fp.add RNE b2217 .def_104)))
(let ((.def_108 (fp.mul RNE .def_105 .def_105)))
(let ((.def_109 (fp.neg .def_108)))
(let ((.def_110 (fp.add RNE b958 .def_109)))
(let ((.def_736 (fp.neg .def_110)))
(let ((.def_737 (= b2242 .def_736)))
(let ((.def_733 (fp.leq b342 .def_110)))
(let ((.def_734 (not .def_733)))
(let ((.def_11 (fp.mul RNE b2066 b376)))
(let ((.def_12 (fp.mul RNE b2066 b2066)))
(let ((.def_13 (fp.neg .def_12)))
(let ((.def_15 (fp.add RNE .def_13 b958)))
(let ((.def_16 (fp.div RNE .def_15 .def_11)))
(let ((.def_17 (fp.add RNE b2066 .def_16)))
(let ((.def_30 (fp.mul RNE .def_17 .def_17)))
(let ((.def_31 (fp.neg .def_30)))
(let ((.def_32 (fp.add RNE b958 .def_31)))
(let ((.def_729 (fp.neg .def_32)))
(let ((.def_730 (= b2092 .def_729)))
(let ((.def_726 (fp.leq b342 .def_32)))
(let ((.def_727 (not .def_726)))
(let ((.def_723 (fp.leq b2272 b388)))
(let ((.def_724 (not .def_723)))
(let ((.def_721 (= b2217 b2247)))
(let ((.def_115 (fp.mul RNE b376 b2247)))
(let ((.def_116 (fp.mul RNE b2247 b2247)))
(let ((.def_117 (fp.neg .def_116)))
(let ((.def_118 (fp.add RNE b958 .def_117)))
(let ((.def_119 (fp.div RNE .def_118 .def_115)))
(let ((.def_120 (fp.add RNE b2247 .def_119)))
(let ((.def_123 (fp.mul RNE .def_120 .def_120)))
(let ((.def_124 (fp.neg .def_123)))
(let ((.def_125 (fp.add RNE b958 .def_124)))
(let ((.def_717 (fp.neg .def_125)))
(let ((.def_718 (= b2272 .def_717)))
(let ((.def_714 (fp.leq b342 .def_125)))
(let ((.def_715 (not .def_714)))
(let ((.def_710 (fp.leq b2308 b388)))
(let ((.def_711 (not .def_710)))
(let ((.def_130 (fp.div RNE b958 b385)))
(let ((.def_131 (fp.mul RNE b376 .def_130)))
(let ((.def_132 (fp.mul RNE .def_130 .def_130)))
(let ((.def_133 (fp.neg .def_132)))
(let ((.def_134 (fp.add RNE b958 .def_133)))
(let ((.def_135 (fp.div RNE .def_134 .def_131)))
(let ((.def_136 (fp.add RNE .def_130 .def_135)))
(let ((.def_139 (fp.mul RNE b376 .def_136)))
(let ((.def_140 (fp.mul RNE .def_136 .def_136)))
(let ((.def_141 (fp.neg .def_140)))
(let ((.def_142 (fp.add RNE b958 .def_141)))
(let ((.def_143 (fp.div RNE .def_142 .def_139)))
(let ((.def_144 (fp.add RNE .def_136 .def_143)))
(let ((.def_145 (fp.mul RNE .def_144 .def_144)))
(let ((.def_146 (fp.neg .def_145)))
(let ((.def_147 (fp.add RNE b958 .def_146)))
(let ((.def_706 (fp.neg .def_147)))
(let ((.def_707 (= b2308 .def_706)))
(let ((.def_703 (fp.leq b342 .def_147)))
(let ((.def_704 (not .def_703)))
(let ((.def_701 (= b2247 .def_144)))
(let ((.def_698 (fp.leq b2318 b388)))
(let ((.def_699 (not .def_698)))
(let ((.def_694 (fp.neg .def_142)))
(let ((.def_695 (= b2318 .def_694)))
(let ((.def_691 (fp.leq b342 .def_142)))
(let ((.def_692 (not .def_691)))
(let ((.def_155 (fp.mul RNE b376 b2328)))
(let ((.def_156 (fp.mul RNE b2328 b2328)))
(let ((.def_157 (fp.neg .def_156)))
(let ((.def_159 (fp.add RNE .def_157 b342)))
(let ((.def_160 (fp.div RNE .def_159 .def_155)))
(let ((.def_161 (fp.add RNE b2328 .def_160)))
(let ((.def_162 (fp.mul RNE .def_161 .def_161)))
(let ((.def_163 (fp.neg .def_162)))
(let ((.def_164 (fp.add RNE b342 .def_163)))
(let ((.def_687 (fp.neg .def_164)))
(let ((.def_688 (= b2339 .def_687)))
(let ((.def_684 (fp.leq b342 .def_164)))
(let ((.def_685 (not .def_684)))
(let ((.def_681 (fp.leq b2370 b388)))
(let ((.def_682 (not .def_681)))
(let ((.def_678 (= b2328 b2344)))
(let ((.def_169 (fp.mul RNE b376 b2344)))
(let ((.def_170 (fp.mul RNE b2344 b2344)))
(let ((.def_171 (fp.neg .def_170)))
(let ((.def_172 (fp.add RNE b342 .def_171)))
(let ((.def_173 (fp.div RNE .def_172 .def_169)))
(let ((.def_174 (fp.add RNE b2344 .def_173)))
(let ((.def_177 (fp.mul RNE .def_174 .def_174)))
(let ((.def_178 (fp.neg .def_177)))
(let ((.def_179 (fp.add RNE b342 .def_178)))
(let ((.def_674 (fp.neg .def_179)))
(let ((.def_675 (= b2370 .def_674)))
(let ((.def_671 (fp.leq b342 .def_179)))
(let ((.def_672 (not .def_671)))
(let ((.def_668 (fp.leq b2400 b388)))
(let ((.def_669 (not .def_668)))
(let ((.def_665 (= b2344 b2375)))
(let ((.def_184 (fp.mul RNE b376 b2375)))
(let ((.def_185 (fp.mul RNE b2375 b2375)))
(let ((.def_186 (fp.neg .def_185)))
(let ((.def_187 (fp.add RNE b342 .def_186)))
(let ((.def_188 (fp.div RNE .def_187 .def_184)))
(let ((.def_189 (fp.add RNE b2375 .def_188)))
(let ((.def_192 (fp.mul RNE .def_189 .def_189)))
(let ((.def_193 (fp.neg .def_192)))
(let ((.def_194 (fp.add RNE b342 .def_193)))
(let ((.def_661 (fp.neg .def_194)))
(let ((.def_662 (= b2400 .def_661)))
(let ((.def_658 (fp.leq b342 .def_194)))
(let ((.def_659 (not .def_658)))
(let ((.def_655 (fp.leq b2430 b388)))
(let ((.def_656 (not .def_655)))
(let ((.def_652 (= b2375 b2405)))
(let ((.def_199 (fp.mul RNE b376 b2405)))
(let ((.def_200 (fp.mul RNE b2405 b2405)))
(let ((.def_201 (fp.neg .def_200)))
(let ((.def_202 (fp.add RNE b342 .def_201)))
(let ((.def_203 (fp.div RNE .def_202 .def_199)))
(let ((.def_204 (fp.add RNE b2405 .def_203)))
(let ((.def_207 (fp.mul RNE .def_204 .def_204)))
(let ((.def_208 (fp.neg .def_207)))
(let ((.def_209 (fp.add RNE b342 .def_208)))
(let ((.def_648 (fp.neg .def_209)))
(let ((.def_649 (= b2430 .def_648)))
(let ((.def_645 (fp.leq b342 .def_209)))
(let ((.def_646 (not .def_645)))
(let ((.def_642 (fp.leq b2460 b388)))
(let ((.def_643 (not .def_642)))
(let ((.def_639 (= b2405 b2435)))
(let ((.def_214 (fp.mul RNE b376 b2435)))
(let ((.def_215 (fp.mul RNE b2435 b2435)))
(let ((.def_216 (fp.neg .def_215)))
(let ((.def_217 (fp.add RNE b342 .def_216)))
(let ((.def_218 (fp.div RNE .def_217 .def_214)))
(let ((.def_219 (fp.add RNE b2435 .def_218)))
(let ((.def_222 (fp.mul RNE .def_219 .def_219)))
(let ((.def_223 (fp.neg .def_222)))
(let ((.def_224 (fp.add RNE b342 .def_223)))
(let ((.def_635 (fp.neg .def_224)))
(let ((.def_636 (= b2460 .def_635)))
(let ((.def_632 (fp.leq b342 .def_224)))
(let ((.def_633 (not .def_632)))
(let ((.def_629 (fp.leq b2490 b388)))
(let ((.def_630 (not .def_629)))
(let ((.def_626 (= b2435 b2465)))
(let ((.def_229 (fp.mul RNE b376 b2465)))
(let ((.def_230 (fp.mul RNE b2465 b2465)))
(let ((.def_231 (fp.neg .def_230)))
(let ((.def_232 (fp.add RNE b342 .def_231)))
(let ((.def_233 (fp.div RNE .def_232 .def_229)))
(let ((.def_234 (fp.add RNE b2465 .def_233)))
(let ((.def_237 (fp.mul RNE .def_234 .def_234)))
(let ((.def_238 (fp.neg .def_237)))
(let ((.def_239 (fp.add RNE b342 .def_238)))
(let ((.def_622 (fp.neg .def_239)))
(let ((.def_623 (= b2490 .def_622)))
(let ((.def_619 (fp.leq b342 .def_239)))
(let ((.def_620 (not .def_619)))
(let ((.def_616 (fp.leq b2520 b388)))
(let ((.def_617 (not .def_616)))
(let ((.def_613 (= b2465 b2495)))
(let ((.def_244 (fp.mul RNE b376 b2495)))
(let ((.def_245 (fp.mul RNE b2495 b2495)))
(let ((.def_246 (fp.neg .def_245)))
(let ((.def_247 (fp.add RNE b342 .def_246)))
(let ((.def_248 (fp.div RNE .def_247 .def_244)))
(let ((.def_249 (fp.add RNE b2495 .def_248)))
(let ((.def_252 (fp.mul RNE .def_249 .def_249)))
(let ((.def_253 (fp.neg .def_252)))
(let ((.def_254 (fp.add RNE b342 .def_253)))
(let ((.def_609 (fp.neg .def_254)))
(let ((.def_610 (= b2520 .def_609)))
(let ((.def_606 (fp.leq b342 .def_254)))
(let ((.def_607 (not .def_606)))
(let ((.def_602 (fp.leq b2550 b388)))
(let ((.def_603 (not .def_602)))
(let ((.def_600 (= b2495 b2525)))
(let ((.def_259 (fp.mul RNE b376 b2525)))
(let ((.def_260 (fp.mul RNE b2525 b2525)))
(let ((.def_261 (fp.neg .def_260)))
(let ((.def_262 (fp.add RNE b342 .def_261)))
(let ((.def_263 (fp.div RNE .def_262 .def_259)))
(let ((.def_264 (fp.add RNE b2525 .def_263)))
(let ((.def_267 (fp.mul RNE .def_264 .def_264)))
(let ((.def_268 (fp.neg .def_267)))
(let ((.def_269 (fp.add RNE b342 .def_268)))
(let ((.def_596 (fp.neg .def_269)))
(let ((.def_597 (= b2550 .def_596)))
(let ((.def_593 (fp.leq b342 .def_269)))
(let ((.def_594 (not .def_593)))
(let ((.def_589 (fp.leq b2586 b388)))
(let ((.def_590 (not .def_589)))
(let ((.def_273 (fp.div RNE b342 b385)))
(let ((.def_274 (fp.mul RNE b376 .def_273)))
(let ((.def_275 (fp.mul RNE .def_273 .def_273)))
(let ((.def_276 (fp.neg .def_275)))
(let ((.def_277 (fp.add RNE b342 .def_276)))
(let ((.def_278 (fp.div RNE .def_277 .def_274)))
(let ((.def_279 (fp.add RNE .def_273 .def_278)))
(let ((.def_282 (fp.mul RNE b376 .def_279)))
(let ((.def_283 (fp.mul RNE .def_279 .def_279)))
(let ((.def_284 (fp.neg .def_283)))
(let ((.def_285 (fp.add RNE b342 .def_284)))
(let ((.def_286 (fp.div RNE .def_285 .def_282)))
(let ((.def_287 (fp.add RNE .def_279 .def_286)))
(let ((.def_288 (fp.mul RNE .def_287 .def_287)))
(let ((.def_289 (fp.neg .def_288)))
(let ((.def_290 (fp.add RNE b342 .def_289)))
(let ((.def_585 (fp.neg .def_290)))
(let ((.def_586 (= b2586 .def_585)))
(let ((.def_582 (fp.leq b342 .def_290)))
(let ((.def_583 (not .def_582)))
(let ((.def_580 (= b2525 .def_287)))
(let ((.def_577 (fp.leq b2596 b388)))
(let ((.def_578 (not .def_577)))
(let ((.def_573 (fp.neg .def_285)))
(let ((.def_574 (= b2596 .def_573)))
(let ((.def_570 (fp.leq b342 .def_285)))
(let ((.def_571 (not .def_570)))
(let ((.def_298 (fp.mul RNE b376 b2606)))
(let ((.def_299 (fp.mul RNE b2606 b2606)))
(let ((.def_300 (fp.neg .def_299)))
(let ((.def_302 (fp.add RNE .def_300 b354)))
(let ((.def_303 (fp.div RNE .def_302 .def_298)))
(let ((.def_304 (fp.add RNE b2606 .def_303)))
(let ((.def_305 (fp.mul RNE .def_304 .def_304)))
(let ((.def_306 (fp.neg .def_305)))
(let ((.def_307 (fp.add RNE b354 .def_306)))
(let ((.def_566 (fp.neg .def_307)))
(let ((.def_567 (= b2617 .def_566)))
(let ((.def_563 (fp.leq b342 .def_307)))
(let ((.def_564 (not .def_563)))
(let ((.def_560 (fp.leq b2648 b388)))
(let ((.def_561 (not .def_560)))
(let ((.def_557 (= b2606 b2622)))
(let ((.def_312 (fp.mul RNE b376 b2622)))
(let ((.def_313 (fp.mul RNE b2622 b2622)))
(let ((.def_314 (fp.neg .def_313)))
(let ((.def_315 (fp.add RNE b354 .def_314)))
(let ((.def_316 (fp.div RNE .def_315 .def_312)))
(let ((.def_317 (fp.add RNE b2622 .def_316)))
(let ((.def_320 (fp.mul RNE .def_317 .def_317)))
(let ((.def_321 (fp.neg .def_320)))
(let ((.def_322 (fp.add RNE b354 .def_321)))
(let ((.def_553 (fp.neg .def_322)))
(let ((.def_554 (= b2648 .def_553)))
(let ((.def_550 (fp.leq b342 .def_322)))
(let ((.def_551 (not .def_550)))
(let ((.def_547 (fp.leq b2678 b388)))
(let ((.def_548 (not .def_547)))
(let ((.def_544 (= b2622 b2653)))
(let ((.def_327 (fp.mul RNE b376 b2653)))
(let ((.def_328 (fp.mul RNE b2653 b2653)))
(let ((.def_329 (fp.neg .def_328)))
(let ((.def_330 (fp.add RNE b354 .def_329)))
(let ((.def_331 (fp.div RNE .def_330 .def_327)))
(let ((.def_332 (fp.add RNE b2653 .def_331)))
(let ((.def_335 (fp.mul RNE .def_332 .def_332)))
(let ((.def_336 (fp.neg .def_335)))
(let ((.def_337 (fp.add RNE b354 .def_336)))
(let ((.def_540 (fp.neg .def_337)))
(let ((.def_541 (= b2678 .def_540)))
(let ((.def_537 (fp.leq b342 .def_337)))
(let ((.def_538 (not .def_537)))
(let ((.def_534 (fp.leq b2708 b388)))
(let ((.def_535 (not .def_534)))
(let ((.def_531 (= b2653 b2683)))
(let ((.def_342 (fp.mul RNE b376 b2683)))
(let ((.def_343 (fp.mul RNE b2683 b2683)))
(let ((.def_344 (fp.neg .def_343)))
(let ((.def_345 (fp.add RNE b354 .def_344)))
(let ((.def_346 (fp.div RNE .def_345 .def_342)))
(let ((.def_347 (fp.add RNE b2683 .def_346)))
(let ((.def_350 (fp.mul RNE .def_347 .def_347)))
(let ((.def_351 (fp.neg .def_350)))
(let ((.def_352 (fp.add RNE b354 .def_351)))
(let ((.def_527 (fp.neg .def_352)))
(let ((.def_528 (= b2708 .def_527)))
(let ((.def_524 (fp.leq b342 .def_352)))
(let ((.def_525 (not .def_524)))
(let ((.def_521 (fp.leq b2738 b388)))
(let ((.def_522 (not .def_521)))
(let ((.def_518 (= b2683 b2713)))
(let ((.def_357 (fp.mul RNE b376 b2713)))
(let ((.def_358 (fp.mul RNE b2713 b2713)))
(let ((.def_359 (fp.neg .def_358)))
(let ((.def_360 (fp.add RNE b354 .def_359)))
(let ((.def_361 (fp.div RNE .def_360 .def_357)))
(let ((.def_362 (fp.add RNE b2713 .def_361)))
(let ((.def_365 (fp.mul RNE .def_362 .def_362)))
(let ((.def_366 (fp.neg .def_365)))
(let ((.def_367 (fp.add RNE b354 .def_366)))
(let ((.def_514 (fp.neg .def_367)))
(let ((.def_515 (= b2738 .def_514)))
(let ((.def_511 (fp.leq b342 .def_367)))
(let ((.def_512 (not .def_511)))
(let ((.def_508 (fp.leq b2768 b388)))
(let ((.def_509 (not .def_508)))
(let ((.def_505 (= b2713 b2743)))
(let ((.def_372 (fp.mul RNE b376 b2743)))
(let ((.def_373 (fp.mul RNE b2743 b2743)))
(let ((.def_374 (fp.neg .def_373)))
(let ((.def_375 (fp.add RNE b354 .def_374)))
(let ((.def_376 (fp.div RNE .def_375 .def_372)))
(let ((.def_377 (fp.add RNE b2743 .def_376)))
(let ((.def_380 (fp.mul RNE .def_377 .def_377)))
(let ((.def_381 (fp.neg .def_380)))
(let ((.def_382 (fp.add RNE b354 .def_381)))
(let ((.def_501 (fp.neg .def_382)))
(let ((.def_502 (= b2768 .def_501)))
(let ((.def_498 (fp.leq b342 .def_382)))
(let ((.def_499 (not .def_498)))
(let ((.def_495 (fp.leq b2798 b388)))
(let ((.def_496 (not .def_495)))
(let ((.def_492 (= b2743 b2773)))
(let ((.def_387 (fp.mul RNE b376 b2773)))
(let ((.def_388 (fp.mul RNE b2773 b2773)))
(let ((.def_389 (fp.neg .def_388)))
(let ((.def_390 (fp.add RNE b354 .def_389)))
(let ((.def_391 (fp.div RNE .def_390 .def_387)))
(let ((.def_392 (fp.add RNE b2773 .def_391)))
(let ((.def_395 (fp.mul RNE .def_392 .def_392)))
(let ((.def_396 (fp.neg .def_395)))
(let ((.def_397 (fp.add RNE b354 .def_396)))
(let ((.def_488 (fp.neg .def_397)))
(let ((.def_489 (= b2798 .def_488)))
(let ((.def_485 (fp.leq b342 .def_397)))
(let ((.def_486 (not .def_485)))
(let ((.def_481 (fp.leq b2828 b388)))
(let ((.def_482 (not .def_481)))
(let ((.def_479 (= b2773 b2803)))
(let ((.def_402 (fp.mul RNE b376 b2803)))
(let ((.def_403 (fp.mul RNE b2803 b2803)))
(let ((.def_404 (fp.neg .def_403)))
(let ((.def_405 (fp.add RNE b354 .def_404)))
(let ((.def_406 (fp.div RNE .def_405 .def_402)))
(let ((.def_407 (fp.add RNE b2803 .def_406)))
(let ((.def_410 (fp.mul RNE .def_407 .def_407)))
(let ((.def_411 (fp.neg .def_410)))
(let ((.def_412 (fp.add RNE b354 .def_411)))
(let ((.def_475 (fp.neg .def_412)))
(let ((.def_476 (= b2828 .def_475)))
(let ((.def_472 (fp.leq b342 .def_412)))
(let ((.def_473 (not .def_472)))
(let ((.def_468 (fp.leq b2864 b388)))
(let ((.def_469 (not .def_468)))
(let ((.def_416 (fp.div RNE b354 b385)))
(let ((.def_417 (fp.mul RNE b376 .def_416)))
(let ((.def_418 (fp.mul RNE .def_416 .def_416)))
(let ((.def_419 (fp.neg .def_418)))
(let ((.def_420 (fp.add RNE b354 .def_419)))
(let ((.def_421 (fp.div RNE .def_420 .def_417)))
(let ((.def_422 (fp.add RNE .def_416 .def_421)))
(let ((.def_425 (fp.mul RNE b376 .def_422)))
(let ((.def_426 (fp.mul RNE .def_422 .def_422)))
(let ((.def_427 (fp.neg .def_426)))
(let ((.def_428 (fp.add RNE b354 .def_427)))
(let ((.def_429 (fp.div RNE .def_428 .def_425)))
(let ((.def_430 (fp.add RNE .def_422 .def_429)))
(let ((.def_431 (fp.mul RNE .def_430 .def_430)))
(let ((.def_432 (fp.neg .def_431)))
(let ((.def_433 (fp.add RNE b354 .def_432)))
(let ((.def_464 (fp.neg .def_433)))
(let ((.def_465 (= b2864 .def_464)))
(let ((.def_461 (fp.leq b342 .def_433)))
(let ((.def_462 (not .def_461)))
(let ((.def_459 (= b2803 .def_430)))
(let ((.def_456 (fp.leq b2874 b388)))
(let ((.def_457 (not .def_456)))
(let ((.def_451 (fp.neg .def_428)))
(let ((.def_452 (= b2874 .def_451)))
(let ((.def_448 (fp.leq b342 .def_428)))
(let ((.def_449 (not .def_448)))
(let ((.def_445 (fp.eq b958 b342)))
(let ((.def_446 (not .def_445)))
(let ((.def_442 (fp.eq b342 b354)))
(let ((.def_443 (not .def_442)))
(let ((.def_440 (fp.eq b342 b342)))
(let ((.def_441 (not .def_440)))
(let ((.def_444 (and .def_441 .def_443)))
(let ((.def_447 (and .def_444 .def_446)))
(let ((.def_450 (and .def_447 .def_449)))
(let ((.def_453 (and .def_450 .def_452)))
(let ((.def_438 (= .def_428 b2874)))
(let ((.def_439 (not .def_438)))
(let ((.def_454 (and .def_439 .def_453)))
(let ((.def_458 (and .def_454 .def_457)))
(let ((.def_460 (and .def_458 .def_459)))
(let ((.def_463 (and .def_460 .def_462)))
(let ((.def_466 (and .def_463 .def_465)))
(let ((.def_435 (= .def_433 b2864)))
(let ((.def_436 (not .def_435)))
(let ((.def_467 (and .def_436 .def_466)))
(let ((.def_470 (and .def_467 .def_469)))
(let ((.def_423 (= b2803 .def_422)))
(let ((.def_424 (not .def_423)))
(let ((.def_471 (and .def_424 .def_470)))
(let ((.def_474 (and .def_471 .def_473)))
(let ((.def_477 (and .def_474 .def_476)))
(let ((.def_414 (= .def_412 b2828)))
(let ((.def_415 (not .def_414)))
(let ((.def_478 (and .def_415 .def_477)))
(let ((.def_480 (and .def_478 .def_479)))
(let ((.def_483 (and .def_480 .def_482)))
(let ((.def_408 (= b2773 .def_407)))
(let ((.def_409 (not .def_408)))
(let ((.def_484 (and .def_409 .def_483)))
(let ((.def_487 (and .def_484 .def_486)))
(let ((.def_490 (and .def_487 .def_489)))
(let ((.def_399 (= .def_397 b2798)))
(let ((.def_400 (not .def_399)))
(let ((.def_491 (and .def_400 .def_490)))
(let ((.def_493 (and .def_491 .def_492)))
(let ((.def_393 (= b2743 .def_392)))
(let ((.def_394 (not .def_393)))
(let ((.def_494 (and .def_394 .def_493)))
(let ((.def_497 (and .def_494 .def_496)))
(let ((.def_500 (and .def_497 .def_499)))
(let ((.def_503 (and .def_500 .def_502)))
(let ((.def_384 (= .def_382 b2768)))
(let ((.def_385 (not .def_384)))
(let ((.def_504 (and .def_385 .def_503)))
(let ((.def_506 (and .def_504 .def_505)))
(let ((.def_378 (= b2713 .def_377)))
(let ((.def_379 (not .def_378)))
(let ((.def_507 (and .def_379 .def_506)))
(let ((.def_510 (and .def_507 .def_509)))
(let ((.def_513 (and .def_510 .def_512)))
(let ((.def_516 (and .def_513 .def_515)))
(let ((.def_369 (= .def_367 b2738)))
(let ((.def_370 (not .def_369)))
(let ((.def_517 (and .def_370 .def_516)))
(let ((.def_519 (and .def_517 .def_518)))
(let ((.def_363 (= b2683 .def_362)))
(let ((.def_364 (not .def_363)))
(let ((.def_520 (and .def_364 .def_519)))
(let ((.def_523 (and .def_520 .def_522)))
(let ((.def_526 (and .def_523 .def_525)))
(let ((.def_529 (and .def_526 .def_528)))
(let ((.def_354 (= .def_352 b2708)))
(let ((.def_355 (not .def_354)))
(let ((.def_530 (and .def_355 .def_529)))
(let ((.def_532 (and .def_530 .def_531)))
(let ((.def_348 (= b2653 .def_347)))
(let ((.def_349 (not .def_348)))
(let ((.def_533 (and .def_349 .def_532)))
(let ((.def_536 (and .def_533 .def_535)))
(let ((.def_539 (and .def_536 .def_538)))
(let ((.def_542 (and .def_539 .def_541)))
(let ((.def_339 (= .def_337 b2678)))
(let ((.def_340 (not .def_339)))
(let ((.def_543 (and .def_340 .def_542)))
(let ((.def_545 (and .def_543 .def_544)))
(let ((.def_333 (= b2622 .def_332)))
(let ((.def_334 (not .def_333)))
(let ((.def_546 (and .def_334 .def_545)))
(let ((.def_549 (and .def_546 .def_548)))
(let ((.def_552 (and .def_549 .def_551)))
(let ((.def_555 (and .def_552 .def_554)))
(let ((.def_324 (= .def_322 b2648)))
(let ((.def_325 (not .def_324)))
(let ((.def_556 (and .def_325 .def_555)))
(let ((.def_558 (and .def_556 .def_557)))
(let ((.def_318 (= b2606 .def_317)))
(let ((.def_319 (not .def_318)))
(let ((.def_559 (and .def_319 .def_558)))
(let ((.def_562 (and .def_559 .def_561)))
(let ((.def_565 (and .def_562 .def_564)))
(let ((.def_568 (and .def_565 .def_567)))
(let ((.def_309 (= .def_307 b2617)))
(let ((.def_310 (not .def_309)))
(let ((.def_569 (and .def_310 .def_568)))
(let ((.def_572 (and .def_569 .def_571)))
(let ((.def_575 (and .def_572 .def_574)))
(let ((.def_295 (= .def_285 b2596)))
(let ((.def_296 (not .def_295)))
(let ((.def_576 (and .def_296 .def_575)))
(let ((.def_579 (and .def_576 .def_578)))
(let ((.def_581 (and .def_579 .def_580)))
(let ((.def_584 (and .def_581 .def_583)))
(let ((.def_587 (and .def_584 .def_586)))
(let ((.def_292 (= .def_290 b2586)))
(let ((.def_293 (not .def_292)))
(let ((.def_588 (and .def_293 .def_587)))
(let ((.def_591 (and .def_588 .def_590)))
(let ((.def_280 (= b2525 .def_279)))
(let ((.def_281 (not .def_280)))
(let ((.def_592 (and .def_281 .def_591)))
(let ((.def_595 (and .def_592 .def_594)))
(let ((.def_598 (and .def_595 .def_597)))
(let ((.def_271 (= .def_269 b2550)))
(let ((.def_272 (not .def_271)))
(let ((.def_599 (and .def_272 .def_598)))
(let ((.def_601 (and .def_599 .def_600)))
(let ((.def_604 (and .def_601 .def_603)))
(let ((.def_265 (= b2495 .def_264)))
(let ((.def_266 (not .def_265)))
(let ((.def_605 (and .def_266 .def_604)))
(let ((.def_608 (and .def_605 .def_607)))
(let ((.def_611 (and .def_608 .def_610)))
(let ((.def_256 (= .def_254 b2520)))
(let ((.def_257 (not .def_256)))
(let ((.def_612 (and .def_257 .def_611)))
(let ((.def_614 (and .def_612 .def_613)))
(let ((.def_250 (= b2465 .def_249)))
(let ((.def_251 (not .def_250)))
(let ((.def_615 (and .def_251 .def_614)))
(let ((.def_618 (and .def_615 .def_617)))
(let ((.def_621 (and .def_618 .def_620)))
(let ((.def_624 (and .def_621 .def_623)))
(let ((.def_241 (= .def_239 b2490)))
(let ((.def_242 (not .def_241)))
(let ((.def_625 (and .def_242 .def_624)))
(let ((.def_627 (and .def_625 .def_626)))
(let ((.def_235 (= b2435 .def_234)))
(let ((.def_236 (not .def_235)))
(let ((.def_628 (and .def_236 .def_627)))
(let ((.def_631 (and .def_628 .def_630)))
(let ((.def_634 (and .def_631 .def_633)))
(let ((.def_637 (and .def_634 .def_636)))
(let ((.def_226 (= .def_224 b2460)))
(let ((.def_227 (not .def_226)))
(let ((.def_638 (and .def_227 .def_637)))
(let ((.def_640 (and .def_638 .def_639)))
(let ((.def_220 (= b2405 .def_219)))
(let ((.def_221 (not .def_220)))
(let ((.def_641 (and .def_221 .def_640)))
(let ((.def_644 (and .def_641 .def_643)))
(let ((.def_647 (and .def_644 .def_646)))
(let ((.def_650 (and .def_647 .def_649)))
(let ((.def_211 (= .def_209 b2430)))
(let ((.def_212 (not .def_211)))
(let ((.def_651 (and .def_212 .def_650)))
(let ((.def_653 (and .def_651 .def_652)))
(let ((.def_205 (= b2375 .def_204)))
(let ((.def_206 (not .def_205)))
(let ((.def_654 (and .def_206 .def_653)))
(let ((.def_657 (and .def_654 .def_656)))
(let ((.def_660 (and .def_657 .def_659)))
(let ((.def_663 (and .def_660 .def_662)))
(let ((.def_196 (= .def_194 b2400)))
(let ((.def_197 (not .def_196)))
(let ((.def_664 (and .def_197 .def_663)))
(let ((.def_666 (and .def_664 .def_665)))
(let ((.def_190 (= b2344 .def_189)))
(let ((.def_191 (not .def_190)))
(let ((.def_667 (and .def_191 .def_666)))
(let ((.def_670 (and .def_667 .def_669)))
(let ((.def_673 (and .def_670 .def_672)))
(let ((.def_676 (and .def_673 .def_675)))
(let ((.def_181 (= .def_179 b2370)))
(let ((.def_182 (not .def_181)))
(let ((.def_677 (and .def_182 .def_676)))
(let ((.def_679 (and .def_677 .def_678)))
(let ((.def_175 (= b2328 .def_174)))
(let ((.def_176 (not .def_175)))
(let ((.def_680 (and .def_176 .def_679)))
(let ((.def_683 (and .def_680 .def_682)))
(let ((.def_686 (and .def_683 .def_685)))
(let ((.def_689 (and .def_686 .def_688)))
(let ((.def_166 (= .def_164 b2339)))
(let ((.def_167 (not .def_166)))
(let ((.def_690 (and .def_167 .def_689)))
(let ((.def_693 (and .def_690 .def_692)))
(let ((.def_696 (and .def_693 .def_695)))
(let ((.def_152 (= .def_142 b2318)))
(let ((.def_153 (not .def_152)))
(let ((.def_697 (and .def_153 .def_696)))
(let ((.def_700 (and .def_697 .def_699)))
(let ((.def_702 (and .def_700 .def_701)))
(let ((.def_705 (and .def_702 .def_704)))
(let ((.def_708 (and .def_705 .def_707)))
(let ((.def_149 (= .def_147 b2308)))
(let ((.def_150 (not .def_149)))
(let ((.def_709 (and .def_150 .def_708)))
(let ((.def_712 (and .def_709 .def_711)))
(let ((.def_137 (= b2247 .def_136)))
(let ((.def_138 (not .def_137)))
(let ((.def_713 (and .def_138 .def_712)))
(let ((.def_716 (and .def_713 .def_715)))
(let ((.def_719 (and .def_716 .def_718)))
(let ((.def_127 (= .def_125 b2272)))
(let ((.def_128 (not .def_127)))
(let ((.def_720 (and .def_128 .def_719)))
(let ((.def_722 (and .def_720 .def_721)))
(let ((.def_725 (and .def_722 .def_724)))
(let ((.def_728 (and .def_725 .def_727)))
(let ((.def_731 (and .def_728 .def_730)))
(let ((.def_121 (= b2217 .def_120)))
(let ((.def_122 (not .def_121)))
(let ((.def_732 (and .def_122 .def_731)))
(let ((.def_735 (and .def_732 .def_734)))
(let ((.def_738 (and .def_735 .def_737)))
(let ((.def_112 (= .def_110 b2242)))
(let ((.def_113 (not .def_112)))
(let ((.def_739 (and .def_113 .def_738)))
(let ((.def_741 (and .def_739 .def_740)))
(let ((.def_106 (= b2187 .def_105)))
(let ((.def_107 (not .def_106)))
(let ((.def_742 (and .def_107 .def_741)))
(let ((.def_745 (and .def_742 .def_744)))
(let ((.def_748 (and .def_745 .def_747)))
(let ((.def_751 (and .def_748 .def_750)))
(let ((.def_97 (= .def_95 b2212)))
(let ((.def_98 (not .def_97)))
(let ((.def_752 (and .def_98 .def_751)))
(let ((.def_754 (and .def_752 .def_753)))
(let ((.def_91 (= b2157 .def_90)))
(let ((.def_92 (not .def_91)))
(let ((.def_755 (and .def_92 .def_754)))
(let ((.def_758 (and .def_755 .def_757)))
(let ((.def_761 (and .def_758 .def_760)))
(let ((.def_764 (and .def_761 .def_763)))
(let ((.def_82 (= .def_80 b2061)))
(let ((.def_83 (not .def_82)))
(let ((.def_765 (and .def_83 .def_764)))
(let ((.def_768 (and .def_765 .def_767)))
(let ((.def_771 (and .def_768 .def_770)))
(let ((.def_70 (= .def_68 b2182)))
(let ((.def_71 (not .def_70)))
(let ((.def_772 (and .def_71 .def_771)))
(let ((.def_774 (and .def_772 .def_773)))
(let ((.def_64 (= b2127 .def_63)))
(let ((.def_65 (not .def_64)))
(let ((.def_775 (and .def_65 .def_774)))
(let ((.def_778 (and .def_775 .def_777)))
(let ((.def_781 (and .def_778 .def_780)))
(let ((.def_784 (and .def_781 .def_783)))
(let ((.def_55 (= .def_53 b2152)))
(let ((.def_56 (not .def_55)))
(let ((.def_785 (and .def_56 .def_784)))
(let ((.def_787 (and .def_785 .def_786)))
(let ((.def_49 (= b2097 .def_48)))
(let ((.def_50 (not .def_49)))
(let ((.def_788 (and .def_50 .def_787)))
(let ((.def_791 (and .def_788 .def_790)))
(let ((.def_794 (and .def_791 .def_793)))
(let ((.def_797 (and .def_794 .def_796)))
(let ((.def_40 (= .def_38 b2122)))
(let ((.def_41 (not .def_40)))
(let ((.def_798 (and .def_41 .def_797)))
(let ((.def_800 (and .def_798 .def_799)))
(let ((.def_34 (= .def_32 b2092)))
(let ((.def_35 (not .def_34)))
(let ((.def_801 (and .def_35 .def_800)))
(let ((.def_28 (= b2066 .def_27)))
(let ((.def_29 (not .def_28)))
(let ((.def_802 (and .def_29 .def_801)))
(let ((.def_805 (and .def_802 .def_804)))
(let ((.def_807 (and .def_805 .def_806)))
(let ((.def_19 (= .def_17 b2050)))
(let ((.def_20 (not .def_19)))
(let ((.def_808 (and .def_20 .def_807)))
(let ((.def_811 (and .def_808 .def_810)))
.def_811))))))))))))))))))))))))))))))))))))))))))))))))))))))))))))))))))))))))))))))))))))))))))))))))))))))))))))))))))))))))))))))))))))))))))))))))))))))))))))))))))))))))))))))))))))))))))))))))))))))))))))))))))))))))))))))))))))))))))))))))))))))))))))))))))))))))))))))))))))))))))))))))))))))))))))))))))))))))))))))))))))))))))))))))))))))))))))))))))))))))))))))))))))))))))))))))))))))))))))))))))))))))))))))))))))))))))))))))))))))))))))))))))))))))))))))))))))))))))))))))))))))))))))))))))))))))))))))))))))))))))))))))))))))))))))))))))))))))))))))))))))))))))))))))))))))))))))))))))))))))))))))))))))))))))))))))))))))))))))))))))))))))))))))))))))))))))))))))))))))))))))))))))))))))))))))))))))))))))))))))))))))))))))))))))))))))
(check-sat)
